% Logging successfully configured
%%%mzn-stat: initTime=0.023221734
%%%mzn-stat: objective=1051
%%%mzn-stat: nodes=1247
%%%mzn-stat: restarts=0
%%%mzn-stat: peakDepth=1247
%%%mzn-stat: solveTime=0.026058766
%%%mzn-stat: variables=2704
%%%mzn-stat: propagators=1800
%%%mzn-stat: failures=0
%%%mzn-stat: propagations=5868
%%%mzn-stat: nogoods=0
%%%mzn-stat: numAtomicConstraintsPropagated=0
%%%mzn-stat: circuitNumber1PropagationsTotal=168
%%%mzn-stat: circuitNumber1CircuitConflicts=0
%%%mzn-stat: circuitNumber1AlldiffConflicts=0
%%%mzn-stat: circuitNumber1TotalFixedEdgesAtConflict=0
%%%mzn-stat: circuitNumber1NumberOfConflicts=0
%%%mzn-stat: circuitNumber1GacPrunings=644
%%%mzn-stat: circuitNumber1PropagationsThatGacPruned=83
%%%mzn-stat: circuitNumber1TotalPruningHallSetSize=6657
%%%mzn-stat: circuitNumber1NumberOfPruningExplanations=644
%%%mzn-stat: circuitNumber1MaxPruningHallSetSize=148
%%%mzn-stat: circuitNumber1TotalSccSizeAtPruning=1794
%%%mzn-stat: circuitNumber1NumberOfSccPruningCalls=83
%%%mzn-stat: circuitNumber1TotalVarsInvolvedInPruning=579
%%%mzn-stat: circuitNumber1MaxValuesPrunedFromSingleVar=9
%%%mzn-stat: circuitNumber1HallCircuitChecks=166
%%%mzn-stat: circuitNumber1HallCircuitPrunings=0
%%%mzn-stat: circuitNumber1CircuitPreventPrunings=7
%%%mzn-stat: AverageConflictSize=0
%%%mzn-stat: NumUnitNogoodsLearned=0
%%%mzn-stat: AverageLearnedNogoodLength=0
%%%mzn-stat: AverageBacktrackAmount=0
%%%mzn-stat: AverageLbd=0
%%%mzn-stat: 2AutonomousSearchNumBackupCalled=1165
%%%mzn-stat: 2AutonomousSearchNumPredicatesRemoved=0
%%%mzn-stat: 2AutonomousSearchNumCalls=1166
%%%mzn-stat: 2AutonomousSearchNumPredicatesAdded=0
%%%mzn-stat: 2AutonomousSearchAverageSizeOfHeap=0
%%%mzn-stat: 2AutonomousSearchNumAssignedPredicatesEncountered=0
%%%mzn-stat-end
maxleg = 1051;
succ = array1d(1..150,[7, 4, 12, 1, 18, 21, 9, 5, 26, 31, 8, 54, 42, 49, 29, 24, 13, 37, 45, 19, 65, 36, 57, 10, 60, 3, 112, 50, 87, 22, 6, 17, 53, 83, 47, 39, 34, 86, 38, 2, 27, 141, 129, 78, 62, 15, 58, 76, 16, 55, 81, 23, 69, 52, 74, 41, 35, 92, 66, 20, 43, 96, 73, 89, 80, 82, 46, 79, 30, 91, 100, 88, 44, 95, 14, 145, 132, 84, 110, 126, 114, 28, 111, 134, 122, 71, 123, 108, 103, 56, 105, 137, 68, 117, 102, 11, 133, 149, 106, 150, 48, 33, 72, 116, 143, 104, 109, 70, 99, 120, 142, 67, 77, 40, 93, 94, 118, 51, 136, 127, 119, 98, 32, 131, 138, 121, 63, 124, 139, 113, 146, 128, 61, 147, 107, 101, 115, 90, 148, 144, 97, 75, 130, 85, 135, 25, 125, 140, 59, 64]);
% time elapsed: 8.58 s
----------
%%%mzn-stat: initTime=0.023221734
%%%mzn-stat: objective=1045
%%%mzn-stat: nodes=2475
%%%mzn-stat: restarts=0
%%%mzn-stat: peakDepth=1247
%%%mzn-stat: solveTime=0.053275394
%%%mzn-stat: variables=2704
%%%mzn-stat: propagators=1800
%%%mzn-stat: failures=0
%%%mzn-stat: propagations=8805
%%%mzn-stat: nogoods=0
%%%mzn-stat: numAtomicConstraintsPropagated=0
%%%mzn-stat: circuitNumber1PropagationsTotal=330
%%%mzn-stat: circuitNumber1CircuitConflicts=0
%%%mzn-stat: circuitNumber1AlldiffConflicts=0
%%%mzn-stat: circuitNumber1TotalFixedEdgesAtConflict=0
%%%mzn-stat: circuitNumber1NumberOfConflicts=0
%%%mzn-stat: circuitNumber1GacPrunings=1266
%%%mzn-stat: circuitNumber1PropagationsThatGacPruned=162
%%%mzn-stat: circuitNumber1TotalPruningHallSetSize=11653
%%%mzn-stat: circuitNumber1NumberOfPruningExplanations=1266
%%%mzn-stat: circuitNumber1MaxPruningHallSetSize=148
%%%mzn-stat: circuitNumber1TotalSccSizeAtPruning=3616
%%%mzn-stat: circuitNumber1NumberOfSccPruningCalls=162
%%%mzn-stat: circuitNumber1TotalVarsInvolvedInPruning=1142
%%%mzn-stat: circuitNumber1MaxValuesPrunedFromSingleVar=9
%%%mzn-stat: circuitNumber1HallCircuitChecks=326
%%%mzn-stat: circuitNumber1HallCircuitPrunings=0
%%%mzn-stat: circuitNumber1CircuitPreventPrunings=17
%%%mzn-stat: AverageConflictSize=0
%%%mzn-stat: NumUnitNogoodsLearned=0
%%%mzn-stat: AverageLearnedNogoodLength=0
%%%mzn-stat: AverageBacktrackAmount=0
%%%mzn-stat: AverageLbd=0
%%%mzn-stat: 2AutonomousSearchNumBackupCalled=2315
%%%mzn-stat: 2AutonomousSearchNumPredicatesRemoved=0
%%%mzn-stat: 2AutonomousSearchNumCalls=2317
%%%mzn-stat: 2AutonomousSearchNumPredicatesAdded=0
%%%mzn-stat: 2AutonomousSearchAverageSizeOfHeap=0
%%%mzn-stat: 2AutonomousSearchNumAssignedPredicatesEncountered=0
%%%mzn-stat-end
maxleg = 1045;
succ = array1d(1..150,[7, 4, 12, 1, 18, 21, 9, 5, 26, 31, 8, 54, 42, 49, 29, 24, 13, 37, 45, 19, 65, 36, 57, 10, 60, 3, 112, 50, 87, 22, 6, 17, 53, 83, 47, 39, 34, 86, 38, 2, 27, 141, 129, 78, 62, 15, 58, 76, 16, 55, 81, 23, 69, 52, 74, 41, 35, 92, 66, 20, 43, 96, 73, 89, 80, 82, 46, 79, 30, 91, 100, 88, 44, 95, 14, 145, 132, 84, 110, 126, 114, 28, 111, 134, 122, 71, 127, 108, 68, 56, 105, 137, 147, 117, 102, 11, 133, 149, 106, 150, 48, 33, 72, 116, 143, 104, 109, 70, 40, 120, 142, 67, 77, 148, 93, 94, 118, 51, 136, 32, 119, 98, 99, 131, 138, 121, 63, 124, 139, 113, 146, 128, 61, 123, 107, 101, 115, 90, 103, 144, 97, 75, 130, 85, 135, 25, 125, 140, 59, 64]);
% time elapsed: 8.59 s
----------
%%%mzn-stat: initTime=0.023221734
%%%mzn-stat: objective=1043
%%%mzn-stat: nodes=3702
%%%mzn-stat: restarts=0
%%%mzn-stat: peakDepth=1247
%%%mzn-stat: solveTime=0.088132403
%%%mzn-stat: variables=2704
%%%mzn-stat: propagators=1800
%%%mzn-stat: failures=3
%%%mzn-stat: propagations=11856
%%%mzn-stat: nogoods=3
%%%mzn-stat: numAtomicConstraintsPropagated=0
%%%mzn-stat: circuitNumber1PropagationsTotal=511
%%%mzn-stat: circuitNumber1CircuitConflicts=2
%%%mzn-stat: circuitNumber1AlldiffConflicts=1
%%%mzn-stat: circuitNumber1TotalFixedEdgesAtConflict=449
%%%mzn-stat: circuitNumber1NumberOfConflicts=3
%%%mzn-stat: circuitNumber1GacPrunings=1913
%%%mzn-stat: circuitNumber1PropagationsThatGacPruned=251
%%%mzn-stat: circuitNumber1TotalPruningHallSetSize=16585
%%%mzn-stat: circuitNumber1NumberOfPruningExplanations=1913
%%%mzn-stat: circuitNumber1MaxPruningHallSetSize=148
%%%mzn-stat: circuitNumber1TotalSccSizeAtPruning=5541
%%%mzn-stat: circuitNumber1NumberOfSccPruningCalls=251
%%%mzn-stat: circuitNumber1TotalVarsInvolvedInPruning=1732
%%%mzn-stat: circuitNumber1MaxValuesPrunedFromSingleVar=9
%%%mzn-stat: circuitNumber1HallCircuitChecks=500
%%%mzn-stat: circuitNumber1HallCircuitPrunings=0
%%%mzn-stat: circuitNumber1CircuitPreventPrunings=34
%%%mzn-stat: AverageConflictSize=73.33333333333333
%%%mzn-stat: NumUnitNogoodsLearned=0
%%%mzn-stat: AverageLearnedNogoodLength=112.33333333333333
%%%mzn-stat: AverageBacktrackAmount=0
%%%mzn-stat: AverageLbd=75
%%%mzn-stat: 2AutonomousSearchNumBackupCalled=3459
%%%mzn-stat: 2AutonomousSearchNumPredicatesRemoved=0
%%%mzn-stat: 2AutonomousSearchNumCalls=3462
%%%mzn-stat: 2AutonomousSearchNumPredicatesAdded=731
%%%mzn-stat: 2AutonomousSearchAverageSizeOfHeap=0.21114962449451186
%%%mzn-stat: 2AutonomousSearchNumAssignedPredicatesEncountered=731
%%%mzn-stat-end
maxleg = 1043;
succ = array1d(1..150,[7, 4, 12, 1, 18, 21, 9, 5, 26, 31, 8, 54, 42, 49, 29, 24, 13, 37, 45, 19, 65, 36, 57, 10, 60, 3, 112, 50, 87, 22, 6, 17, 53, 83, 47, 39, 34, 86, 38, 2, 27, 141, 129, 78, 62, 15, 58, 76, 16, 55, 81, 23, 69, 52, 74, 41, 35, 119, 66, 20, 43, 96, 73, 89, 80, 82, 46, 79, 30, 91, 100, 88, 44, 111, 14, 145, 132, 84, 109, 126, 114, 28, 120, 134, 122, 71, 123, 108, 68, 56, 105, 137, 147, 117, 102, 11, 133, 149, 106, 150, 48, 33, 72, 116, 143, 104, 92, 70, 40, 115, 142, 67, 77, 148, 93, 94, 118, 51, 136, 127, 95, 98, 99, 131, 138, 121, 63, 124, 139, 113, 146, 128, 61, 110, 107, 101, 32, 90, 103, 144, 97, 75, 130, 85, 135, 25, 125, 140, 59, 64]);
% time elapsed: 8.62 s
----------
%%%mzn-stat: initTime=0.023221734
%%%mzn-stat: objective=992
%%%mzn-stat: nodes=4888
%%%mzn-stat: restarts=0
%%%mzn-stat: peakDepth=1247
%%%mzn-stat: solveTime=0.115747267
%%%mzn-stat: variables=2704
%%%mzn-stat: propagators=1800
%%%mzn-stat: failures=3
%%%mzn-stat: propagations=14826
%%%mzn-stat: nogoods=3
%%%mzn-stat: numAtomicConstraintsPropagated=0
%%%mzn-stat: circuitNumber1PropagationsTotal=674
%%%mzn-stat: circuitNumber1CircuitConflicts=2
%%%mzn-stat: circuitNumber1AlldiffConflicts=1
%%%mzn-stat: circuitNumber1TotalFixedEdgesAtConflict=449
%%%mzn-stat: circuitNumber1NumberOfConflicts=3
%%%mzn-stat: circuitNumber1GacPrunings=2533
%%%mzn-stat: circuitNumber1PropagationsThatGacPruned=331
%%%mzn-stat: circuitNumber1TotalPruningHallSetSize=23324
%%%mzn-stat: circuitNumber1NumberOfPruningExplanations=2533
%%%mzn-stat: circuitNumber1MaxPruningHallSetSize=148
%%%mzn-stat: circuitNumber1TotalSccSizeAtPruning=7882
%%%mzn-stat: circuitNumber1NumberOfSccPruningCalls=331
%%%mzn-stat: circuitNumber1TotalVarsInvolvedInPruning=2282
%%%mzn-stat: circuitNumber1MaxValuesPrunedFromSingleVar=9
%%%mzn-stat: circuitNumber1HallCircuitChecks=664
%%%mzn-stat: circuitNumber1HallCircuitPrunings=0
%%%mzn-stat: circuitNumber1CircuitPreventPrunings=46
%%%mzn-stat: AverageConflictSize=73.33333333333333
%%%mzn-stat: NumUnitNogoodsLearned=0
%%%mzn-stat: AverageLearnedNogoodLength=112.33333333333333
%%%mzn-stat: AverageBacktrackAmount=0
%%%mzn-stat: AverageLbd=75
%%%mzn-stat: 2AutonomousSearchNumBackupCalled=4567
%%%mzn-stat: 2AutonomousSearchNumPredicatesRemoved=0
%%%mzn-stat: 2AutonomousSearchNumCalls=4571
%%%mzn-stat: 2AutonomousSearchNumPredicatesAdded=731
%%%mzn-stat: 2AutonomousSearchAverageSizeOfHeap=0.3198424852329906
%%%mzn-stat: 2AutonomousSearchNumAssignedPredicatesEncountered=1462
%%%mzn-stat-end
maxleg = 992;
succ = array1d(1..150,[7, 4, 12, 1, 18, 21, 9, 5, 26, 31, 8, 54, 42, 49, 29, 24, 13, 37, 45, 19, 65, 36, 57, 10, 60, 3, 112, 50, 87, 22, 6, 17, 53, 83, 47, 39, 34, 86, 38, 2, 27, 141, 129, 78, 62, 15, 58, 76, 16, 55, 81, 23, 69, 52, 74, 41, 35, 119, 66, 20, 43, 96, 73, 89, 80, 82, 46, 79, 30, 91, 100, 88, 44, 111, 14, 145, 132, 84, 109, 126, 114, 28, 120, 134, 122, 71, 123, 108, 68, 116, 105, 137, 147, 48, 102, 11, 133, 149, 106, 150, 127, 33, 72, 115, 143, 104, 92, 70, 40, 67, 142, 90, 146, 148, 93, 94, 118, 51, 136, 124, 95, 98, 77, 131, 138, 121, 63, 99, 139, 113, 101, 128, 61, 110, 107, 56, 32, 117, 103, 144, 97, 75, 130, 85, 135, 25, 125, 140, 59, 64]);
% time elapsed: 8.66 s
----------
%%%mzn-stat: initTime=0.023221734
%%%mzn-stat: objective=991
%%%mzn-stat: nodes=6095
%%%mzn-stat: restarts=0
%%%mzn-stat: peakDepth=1247
%%%mzn-stat: solveTime=0.1417831
%%%mzn-stat: variables=2704
%%%mzn-stat: propagators=1800
%%%mzn-stat: failures=3
%%%mzn-stat: propagations=17669
%%%mzn-stat: nogoods=3
%%%mzn-stat: numAtomicConstraintsPropagated=0
%%%mzn-stat: circuitNumber1PropagationsTotal=825
%%%mzn-stat: circuitNumber1CircuitConflicts=2
%%%mzn-stat: circuitNumber1AlldiffConflicts=1
%%%mzn-stat: circuitNumber1TotalFixedEdgesAtConflict=449
%%%mzn-stat: circuitNumber1NumberOfConflicts=3
%%%mzn-stat: circuitNumber1GacPrunings=3159
%%%mzn-stat: circuitNumber1PropagationsThatGacPruned=407
%%%mzn-stat: circuitNumber1TotalPruningHallSetSize=29501
%%%mzn-stat: circuitNumber1NumberOfPruningExplanations=3159
%%%mzn-stat: circuitNumber1MaxPruningHallSetSize=148
%%%mzn-stat: circuitNumber1TotalSccSizeAtPruning=9999
%%%mzn-stat: circuitNumber1NumberOfSccPruningCalls=407
%%%mzn-stat: circuitNumber1TotalVarsInvolvedInPruning=2834
%%%mzn-stat: circuitNumber1MaxValuesPrunedFromSingleVar=9
%%%mzn-stat: circuitNumber1HallCircuitChecks=816
%%%mzn-stat: circuitNumber1HallCircuitPrunings=0
%%%mzn-stat: circuitNumber1CircuitPreventPrunings=55
%%%mzn-stat: AverageConflictSize=73.33333333333333
%%%mzn-stat: NumUnitNogoodsLearned=0
%%%mzn-stat: AverageLearnedNogoodLength=112.33333333333333
%%%mzn-stat: AverageBacktrackAmount=0
%%%mzn-stat: AverageLbd=75
%%%mzn-stat: 2AutonomousSearchNumBackupCalled=5702
%%%mzn-stat: 2AutonomousSearchNumPredicatesRemoved=0
%%%mzn-stat: 2AutonomousSearchNumCalls=5707
%%%mzn-stat: 2AutonomousSearchNumPredicatesAdded=731
%%%mzn-stat: 2AutonomousSearchAverageSizeOfHeap=0.3842649377956895
%%%mzn-stat: 2AutonomousSearchNumAssignedPredicatesEncountered=2193
%%%mzn-stat-end
maxleg = 991;
succ = array1d(1..150,[7, 4, 12, 1, 18, 21, 9, 5, 26, 31, 8, 54, 42, 49, 29, 24, 13, 37, 45, 19, 65, 36, 57, 10, 60, 3, 112, 50, 87, 22, 6, 17, 53, 83, 47, 39, 34, 86, 38, 2, 79, 104, 129, 78, 62, 15, 58, 76, 16, 55, 81, 23, 69, 52, 74, 41, 35, 119, 66, 20, 43, 96, 73, 89, 80, 82, 46, 105, 30, 91, 100, 88, 44, 111, 14, 145, 132, 84, 109, 126, 114, 28, 120, 134, 122, 71, 127, 108, 68, 116, 107, 137, 147, 117, 102, 11, 133, 149, 106, 150, 48, 33, 72, 115, 143, 27, 92, 70, 99, 141, 103, 67, 77, 40, 93, 94, 118, 51, 136, 32, 95, 98, 139, 142, 138, 128, 110, 124, 121, 75, 101, 146, 61, 123, 113, 56, 131, 90, 148, 144, 97, 63, 130, 85, 135, 25, 125, 140, 59, 64]);
% time elapsed: 8.68 s
----------
%%%mzn-stat: initTime=0.023221734
%%%mzn-stat: objective=979
%%%mzn-stat: nodes=7285
%%%mzn-stat: restarts=0
%%%mzn-stat: peakDepth=1247
%%%mzn-stat: solveTime=0.170237714
%%%mzn-stat: variables=2704
%%%mzn-stat: propagators=1800
%%%mzn-stat: failures=4
%%%mzn-stat: propagations=20685
%%%mzn-stat: nogoods=4
%%%mzn-stat: numAtomicConstraintsPropagated=0
%%%mzn-stat: circuitNumber1PropagationsTotal=988
%%%mzn-stat: circuitNumber1CircuitConflicts=3
%%%mzn-stat: circuitNumber1AlldiffConflicts=1
%%%mzn-stat: circuitNumber1TotalFixedEdgesAtConflict=599
%%%mzn-stat: circuitNumber1NumberOfConflicts=4
%%%mzn-stat: circuitNumber1GacPrunings=3787
%%%mzn-stat: circuitNumber1PropagationsThatGacPruned=489
%%%mzn-stat: circuitNumber1TotalPruningHallSetSize=35832
%%%mzn-stat: circuitNumber1NumberOfPruningExplanations=3787
%%%mzn-stat: circuitNumber1MaxPruningHallSetSize=148
%%%mzn-stat: circuitNumber1TotalSccSizeAtPruning=12204
%%%mzn-stat: circuitNumber1NumberOfSccPruningCalls=489
%%%mzn-stat: circuitNumber1TotalVarsInvolvedInPruning=3391
%%%mzn-stat: circuitNumber1MaxValuesPrunedFromSingleVar=9
%%%mzn-stat: circuitNumber1HallCircuitChecks=985
%%%mzn-stat: circuitNumber1HallCircuitPrunings=0
%%%mzn-stat: circuitNumber1CircuitPreventPrunings=63
%%%mzn-stat: AverageConflictSize=71.75
%%%mzn-stat: NumUnitNogoodsLearned=0
%%%mzn-stat: AverageLearnedNogoodLength=103.75
%%%mzn-stat: AverageBacktrackAmount=0
%%%mzn-stat: AverageLbd=68
%%%mzn-stat: 2AutonomousSearchNumBackupCalled=6814
%%%mzn-stat: 2AutonomousSearchNumPredicatesRemoved=0
%%%mzn-stat: 2AutonomousSearchNumCalls=6820
%%%mzn-stat: 2AutonomousSearchNumPredicatesAdded=896
%%%mzn-stat: 2AutonomousSearchAverageSizeOfHeap=0.43372434017595307
%%%mzn-stat: 2AutonomousSearchNumAssignedPredicatesEncountered=2958
%%%mzn-stat-end
maxleg = 979;
succ = array1d(1..150,[7, 4, 12, 1, 18, 21, 9, 5, 26, 31, 38, 54, 42, 49, 29, 24, 13, 37, 45, 19, 65, 36, 8, 10, 60, 3, 112, 50, 87, 22, 6, 17, 53, 83, 47, 39, 34, 86, 64, 2, 27, 57, 129, 78, 62, 15, 58, 76, 16, 55, 81, 23, 69, 52, 74, 41, 35, 119, 68, 20, 43, 96, 73, 89, 80, 82, 46, 79, 30, 91, 100, 88, 44, 111, 14, 145, 132, 84, 109, 126, 114, 28, 120, 134, 122, 71, 123, 108, 103, 116, 105, 137, 147, 117, 102, 11, 133, 149, 106, 150, 48, 33, 72, 115, 143, 104, 92, 70, 99, 141, 142, 67, 77, 40, 93, 94, 118, 51, 136, 127, 95, 98, 139, 131, 138, 128, 63, 124, 121, 113, 101, 146, 61, 110, 107, 56, 32, 90, 148, 144, 97, 75, 130, 85, 135, 25, 125, 140, 59, 66]);
% time elapsed: 8.72 s
----------
%%%mzn-stat: initTime=0.023221734
%%%mzn-stat: objective=966
%%%mzn-stat: nodes=8471
%%%mzn-stat: restarts=0
%%%mzn-stat: peakDepth=1247
%%%mzn-stat: solveTime=0.199714871
%%%mzn-stat: variables=2704
%%%mzn-stat: propagators=1800
%%%mzn-stat: failures=6
%%%mzn-stat: propagations=23750
%%%mzn-stat: nogoods=6
%%%mzn-stat: numAtomicConstraintsPropagated=0
%%%mzn-stat: circuitNumber1PropagationsTotal=1150
%%%mzn-stat: circuitNumber1CircuitConflicts=4
%%%mzn-stat: circuitNumber1AlldiffConflicts=1
%%%mzn-stat: circuitNumber1TotalFixedEdgesAtConflict=737
%%%mzn-stat: circuitNumber1NumberOfConflicts=5
%%%mzn-stat: circuitNumber1GacPrunings=4507
%%%mzn-stat: circuitNumber1PropagationsThatGacPruned=569
%%%mzn-stat: circuitNumber1TotalPruningHallSetSize=44235
%%%mzn-stat: circuitNumber1NumberOfPruningExplanations=4507
%%%mzn-stat: circuitNumber1MaxPruningHallSetSize=148
%%%mzn-stat: circuitNumber1TotalSccSizeAtPruning=14427
%%%mzn-stat: circuitNumber1NumberOfSccPruningCalls=569
%%%mzn-stat: circuitNumber1TotalVarsInvolvedInPruning=3992
%%%mzn-stat: circuitNumber1MaxValuesPrunedFromSingleVar=10
%%%mzn-stat: circuitNumber1HallCircuitChecks=1152
%%%mzn-stat: circuitNumber1HallCircuitPrunings=0
%%%mzn-stat: circuitNumber1CircuitPreventPrunings=77
%%%mzn-stat: AverageConflictSize=57.666666666666664
%%%mzn-stat: NumUnitNogoodsLearned=0
%%%mzn-stat: AverageLearnedNogoodLength=93.16666666666667
%%%mzn-stat: AverageBacktrackAmount=0
%%%mzn-stat: AverageLbd=60.166666666666664
%%%mzn-stat: 2AutonomousSearchNumBackupCalled=7925
%%%mzn-stat: 2AutonomousSearchNumPredicatesRemoved=0
%%%mzn-stat: 2AutonomousSearchNumCalls=7932
%%%mzn-stat: 2AutonomousSearchNumPredicatesAdded=1480
%%%mzn-stat: 2AutonomousSearchAverageSizeOfHeap=0.5346696923852748
%%%mzn-stat: 2AutonomousSearchNumAssignedPredicatesEncountered=4241
%%%mzn-stat-end
maxleg = 966;
succ = array1d(1..150,[7, 4, 12, 1, 18, 21, 9, 5, 26, 31, 38, 54, 42, 49, 29, 24, 13, 37, 45, 19, 65, 36, 8, 10, 60, 3, 112, 50, 87, 22, 6, 17, 53, 116, 47, 39, 34, 86, 64, 2, 27, 57, 129, 78, 62, 15, 58, 76, 16, 55, 81, 23, 69, 52, 74, 41, 35, 119, 68, 20, 43, 136, 73, 89, 80, 82, 46, 79, 30, 91, 100, 88, 44, 111, 14, 145, 132, 84, 109, 126, 114, 61, 120, 134, 141, 71, 123, 108, 103, 28, 105, 137, 147, 48, 102, 11, 133, 149, 106, 150, 127, 33, 72, 115, 143, 104, 92, 70, 99, 67, 142, 90, 77, 40, 93, 94, 118, 51, 83, 124, 95, 98, 139, 131, 138, 128, 63, 122, 121, 113, 101, 146, 96, 110, 107, 56, 32, 117, 148, 144, 97, 75, 130, 85, 135, 25, 125, 140, 59, 66]);
% time elapsed: 8.75 s
----------
%%%mzn-stat: initTime=0.023221734
%%%mzn-stat: objective=959
%%%mzn-stat: nodes=9621
%%%mzn-stat: restarts=0
%%%mzn-stat: peakDepth=1247
%%%mzn-stat: solveTime=0.229979569
%%%mzn-stat: variables=2704
%%%mzn-stat: propagators=1800
%%%mzn-stat: failures=7
%%%mzn-stat: propagations=26818
%%%mzn-stat: nogoods=7
%%%mzn-stat: numAtomicConstraintsPropagated=0
%%%mzn-stat: circuitNumber1PropagationsTotal=1311
%%%mzn-stat: circuitNumber1CircuitConflicts=4
%%%mzn-stat: circuitNumber1AlldiffConflicts=2
%%%mzn-stat: circuitNumber1TotalFixedEdgesAtConflict=882
%%%mzn-stat: circuitNumber1NumberOfConflicts=6
%%%mzn-stat: circuitNumber1GacPrunings=5163
%%%mzn-stat: circuitNumber1PropagationsThatGacPruned=648
%%%mzn-stat: circuitNumber1TotalPruningHallSetSize=55028
%%%mzn-stat: circuitNumber1NumberOfPruningExplanations=5163
%%%mzn-stat: circuitNumber1MaxPruningHallSetSize=148
%%%mzn-stat: circuitNumber1TotalSccSizeAtPruning=16871
%%%mzn-stat: circuitNumber1NumberOfSccPruningCalls=648
%%%mzn-stat: circuitNumber1TotalVarsInvolvedInPruning=4535
%%%mzn-stat: circuitNumber1MaxValuesPrunedFromSingleVar=10
%%%mzn-stat: circuitNumber1HallCircuitChecks=1313
%%%mzn-stat: circuitNumber1HallCircuitPrunings=0
%%%mzn-stat: circuitNumber1CircuitPreventPrunings=95
%%%mzn-stat: AverageConflictSize=50.142857142857146
%%%mzn-stat: NumUnitNogoodsLearned=0
%%%mzn-stat: AverageLearnedNogoodLength=92.28571428571429
%%%mzn-stat: AverageBacktrackAmount=0
%%%mzn-stat: AverageLbd=59.285714285714285
%%%mzn-stat: 2AutonomousSearchNumBackupCalled=9002
%%%mzn-stat: 2AutonomousSearchNumPredicatesRemoved=0
%%%mzn-stat: 2AutonomousSearchNumCalls=9010
%%%mzn-stat: 2AutonomousSearchNumPredicatesAdded=2157
%%%mzn-stat: 2AutonomousSearchAverageSizeOfHeap=0.6479467258601553
%%%mzn-stat: 2AutonomousSearchNumAssignedPredicatesEncountered=5838
%%%mzn-stat-end
maxleg = 959;
succ = array1d(1..150,[7, 4, 12, 1, 18, 21, 9, 5, 26, 31, 38, 54, 42, 49, 29, 24, 13, 37, 45, 19, 65, 36, 8, 10, 60, 3, 112, 50, 87, 22, 6, 17, 53, 116, 47, 39, 34, 86, 64, 2, 27, 57, 129, 78, 62, 15, 58, 76, 16, 55, 81, 23, 69, 52, 74, 41, 35, 119, 68, 20, 43, 136, 73, 89, 80, 82, 46, 79, 135, 91, 30, 88, 44, 111, 14, 145, 132, 84, 109, 126, 114, 61, 120, 134, 141, 71, 123, 108, 103, 28, 105, 137, 147, 48, 102, 11, 133, 149, 106, 150, 127, 33, 72, 115, 143, 104, 92, 70, 99, 67, 142, 90, 77, 40, 93, 94, 118, 51, 83, 122, 95, 98, 139, 131, 138, 128, 63, 124, 121, 113, 101, 146, 96, 110, 107, 56, 32, 117, 148, 100, 97, 75, 130, 85, 144, 25, 125, 140, 59, 66]);
% time elapsed: 8.78 s
----------
%%%mzn-stat: initTime=0.023221734
%%%mzn-stat: objective=947
%%%mzn-stat: nodes=10776
%%%mzn-stat: restarts=0
%%%mzn-stat: peakDepth=1247
%%%mzn-stat: solveTime=0.259262529
%%%mzn-stat: variables=2704
%%%mzn-stat: propagators=1800
%%%mzn-stat: failures=8
%%%mzn-stat: propagations=29857
%%%mzn-stat: nogoods=8
%%%mzn-stat: numAtomicConstraintsPropagated=0
%%%mzn-stat: circuitNumber1PropagationsTotal=1467
%%%mzn-stat: circuitNumber1CircuitConflicts=4
%%%mzn-stat: circuitNumber1AlldiffConflicts=3
%%%mzn-stat: circuitNumber1TotalFixedEdgesAtConflict=1031
%%%mzn-stat: circuitNumber1NumberOfConflicts=7
%%%mzn-stat: circuitNumber1GacPrunings=5808
%%%mzn-stat: circuitNumber1PropagationsThatGacPruned=724
%%%mzn-stat: circuitNumber1TotalPruningHallSetSize=64809
%%%mzn-stat: circuitNumber1NumberOfPruningExplanations=5808
%%%mzn-stat: circuitNumber1MaxPruningHallSetSize=148
%%%mzn-stat: circuitNumber1TotalSccSizeAtPruning=19178
%%%mzn-stat: circuitNumber1NumberOfSccPruningCalls=724
%%%mzn-stat: circuitNumber1TotalVarsInvolvedInPruning=5086
%%%mzn-stat: circuitNumber1MaxValuesPrunedFromSingleVar=10
%%%mzn-stat: circuitNumber1HallCircuitChecks=1469
%%%mzn-stat: circuitNumber1HallCircuitPrunings=0
%%%mzn-stat: circuitNumber1CircuitPreventPrunings=107
%%%mzn-stat: AverageConflictSize=44.125
%%%mzn-stat: NumUnitNogoodsLearned=0
%%%mzn-stat: AverageLearnedNogoodLength=94.125
%%%mzn-stat: AverageBacktrackAmount=0
%%%mzn-stat: AverageLbd=58
%%%mzn-stat: 2AutonomousSearchNumBackupCalled=10083
%%%mzn-stat: 2AutonomousSearchNumPredicatesRemoved=0
%%%mzn-stat: 2AutonomousSearchNumCalls=10092
%%%mzn-stat: 2AutonomousSearchNumPredicatesAdded=2634
%%%mzn-stat: 2AutonomousSearchAverageSizeOfHeap=0.7636741973840666
%%%mzn-stat: 2AutonomousSearchNumAssignedPredicatesEncountered=7707
%%%mzn-stat-end
maxleg = 947;
succ = array1d(1..150,[7, 4, 12, 1, 18, 21, 9, 5, 26, 31, 38, 54, 42, 49, 29, 24, 13, 37, 45, 19, 65, 36, 8, 10, 60, 3, 112, 50, 87, 22, 6, 17, 53, 116, 47, 39, 34, 86, 64, 2, 27, 57, 129, 78, 62, 15, 76, 127, 16, 55, 81, 23, 69, 52, 74, 41, 35, 119, 68, 20, 43, 136, 73, 89, 80, 82, 46, 79, 135, 91, 30, 88, 44, 111, 14, 145, 132, 84, 109, 126, 58, 61, 120, 114, 122, 131, 123, 108, 103, 28, 105, 137, 147, 117, 102, 11, 133, 149, 106, 150, 48, 33, 72, 75, 143, 104, 92, 70, 99, 141, 134, 67, 77, 40, 93, 94, 118, 51, 83, 115, 95, 98, 139, 142, 138, 128, 71, 124, 121, 113, 101, 146, 96, 110, 107, 56, 32, 90, 148, 100, 97, 63, 130, 85, 144, 25, 125, 140, 59, 66]);
% time elapsed: 8.82 s
----------
%%%mzn-stat: initTime=0.023221734
%%%mzn-stat: objective=933
%%%mzn-stat: nodes=11923
%%%mzn-stat: restarts=0
%%%mzn-stat: peakDepth=1247
%%%mzn-stat: solveTime=0.290633209
%%%mzn-stat: variables=2704
%%%mzn-stat: propagators=1800
%%%mzn-stat: failures=10
%%%mzn-stat: propagations=32990
%%%mzn-stat: nogoods=10
%%%mzn-stat: numAtomicConstraintsPropagated=0
%%%mzn-stat: circuitNumber1PropagationsTotal=1628
%%%mzn-stat: circuitNumber1CircuitConflicts=5
%%%mzn-stat: circuitNumber1AlldiffConflicts=3
%%%mzn-stat: circuitNumber1TotalFixedEdgesAtConflict=1181
%%%mzn-stat: circuitNumber1NumberOfConflicts=8
%%%mzn-stat: circuitNumber1GacPrunings=6508
%%%mzn-stat: circuitNumber1PropagationsThatGacPruned=805
%%%mzn-stat: circuitNumber1TotalPruningHallSetSize=74533
%%%mzn-stat: circuitNumber1NumberOfPruningExplanations=6508
%%%mzn-stat: circuitNumber1MaxPruningHallSetSize=148
%%%mzn-stat: circuitNumber1TotalSccSizeAtPruning=21582
%%%mzn-stat: circuitNumber1NumberOfSccPruningCalls=805
%%%mzn-stat: circuitNumber1TotalVarsInvolvedInPruning=5668
%%%mzn-stat: circuitNumber1MaxValuesPrunedFromSingleVar=10
%%%mzn-stat: circuitNumber1HallCircuitChecks=1632
%%%mzn-stat: circuitNumber1HallCircuitPrunings=0
%%%mzn-stat: circuitNumber1CircuitPreventPrunings=125
%%%mzn-stat: AverageConflictSize=42.7
%%%mzn-stat: NumUnitNogoodsLearned=0
%%%mzn-stat: AverageLearnedNogoodLength=95.1
%%%mzn-stat: AverageBacktrackAmount=0
%%%mzn-stat: AverageLbd=56.7
%%%mzn-stat: 2AutonomousSearchNumBackupCalled=11157
%%%mzn-stat: 2AutonomousSearchNumPredicatesRemoved=0
%%%mzn-stat: 2AutonomousSearchNumCalls=11167
%%%mzn-stat: 2AutonomousSearchNumPredicatesAdded=3903
%%%mzn-stat: 2AutonomousSearchAverageSizeOfHeap=0.9204799856720695
%%%mzn-stat: 2AutonomousSearchNumAssignedPredicatesEncountered=10279
%%%mzn-stat-end
maxleg = 933;
succ = array1d(1..150,[7, 4, 12, 1, 18, 21, 9, 5, 26, 31, 38, 54, 42, 49, 29, 24, 13, 37, 45, 19, 65, 36, 8, 10, 60, 3, 112, 50, 87, 22, 6, 17, 53, 116, 47, 39, 34, 86, 64, 2, 27, 57, 129, 78, 62, 15, 76, 127, 16, 55, 81, 23, 69, 52, 74, 41, 35, 119, 68, 20, 43, 136, 73, 89, 80, 82, 46, 79, 135, 91, 100, 88, 44, 111, 14, 145, 132, 84, 109, 98, 58, 28, 120, 114, 141, 71, 123, 108, 103, 126, 105, 137, 147, 48, 102, 11, 133, 149, 106, 150, 61, 33, 72, 115, 143, 104, 92, 70, 99, 67, 142, 90, 77, 40, 93, 130, 118, 51, 83, 32, 95, 30, 139, 131, 138, 128, 63, 124, 121, 113, 101, 146, 96, 110, 107, 56, 134, 117, 148, 144, 97, 75, 59, 85, 94, 25, 125, 140, 122, 66]);
% time elapsed: 8.85 s
----------
%%%mzn-stat: initTime=0.023221734
%%%mzn-stat: objective=907
%%%mzn-stat: nodes=13052
%%%mzn-stat: restarts=0
%%%mzn-stat: peakDepth=1247
%%%mzn-stat: solveTime=0.317856061
%%%mzn-stat: variables=2704
%%%mzn-stat: propagators=1800
%%%mzn-stat: failures=10
%%%mzn-stat: propagations=35984
%%%mzn-stat: nogoods=10
%%%mzn-stat: numAtomicConstraintsPropagated=0
%%%mzn-stat: circuitNumber1PropagationsTotal=1775
%%%mzn-stat: circuitNumber1CircuitConflicts=5
%%%mzn-stat: circuitNumber1AlldiffConflicts=3
%%%mzn-stat: circuitNumber1TotalFixedEdgesAtConflict=1181
%%%mzn-stat: circuitNumber1NumberOfConflicts=8
%%%mzn-stat: circuitNumber1GacPrunings=7121
%%%mzn-stat: circuitNumber1PropagationsThatGacPruned=878
%%%mzn-stat: circuitNumber1TotalPruningHallSetSize=84193
%%%mzn-stat: circuitNumber1NumberOfPruningExplanations=7121
%%%mzn-stat: circuitNumber1MaxPruningHallSetSize=148
%%%mzn-stat: circuitNumber1TotalSccSizeAtPruning=23788
%%%mzn-stat: circuitNumber1NumberOfSccPruningCalls=878
%%%mzn-stat: circuitNumber1TotalVarsInvolvedInPruning=6182
%%%mzn-stat: circuitNumber1MaxValuesPrunedFromSingleVar=10
%%%mzn-stat: circuitNumber1HallCircuitChecks=1777
%%%mzn-stat: circuitNumber1HallCircuitPrunings=0
%%%mzn-stat: circuitNumber1CircuitPreventPrunings=133
%%%mzn-stat: AverageConflictSize=42.7
%%%mzn-stat: NumUnitNogoodsLearned=0
%%%mzn-stat: AverageLearnedNogoodLength=95.1
%%%mzn-stat: AverageBacktrackAmount=0
%%%mzn-stat: AverageLbd=56.7
%%%mzn-stat: 2AutonomousSearchNumBackupCalled=12214
%%%mzn-stat: 2AutonomousSearchNumPredicatesRemoved=0
%%%mzn-stat: 2AutonomousSearchNumCalls=12225
%%%mzn-stat: 2AutonomousSearchNumPredicatesAdded=3903
%%%mzn-stat: 2AutonomousSearchAverageSizeOfHeap=1.0512065439672802
%%%mzn-stat: 2AutonomousSearchNumAssignedPredicatesEncountered=12851
%%%mzn-stat-end
maxleg = 907;
succ = array1d(1..150,[7, 4, 12, 1, 18, 21, 9, 5, 26, 31, 38, 54, 42, 49, 29, 24, 13, 37, 45, 19, 65, 36, 8, 10, 60, 3, 112, 50, 87, 22, 6, 17, 53, 116, 47, 39, 34, 86, 64, 2, 79, 57, 129, 78, 62, 15, 76, 127, 16, 55, 81, 23, 69, 52, 74, 41, 35, 119, 68, 20, 43, 136, 73, 89, 80, 82, 46, 108, 135, 27, 100, 88, 44, 111, 14, 145, 132, 84, 109, 126, 58, 61, 120, 114, 141, 71, 123, 98, 103, 28, 105, 137, 147, 93, 102, 11, 133, 149, 106, 150, 48, 33, 72, 115, 143, 104, 92, 70, 99, 67, 134, 96, 77, 40, 124, 94, 118, 51, 83, 32, 95, 30, 139, 142, 138, 128, 63, 122, 121, 113, 101, 146, 91, 110, 107, 56, 131, 117, 148, 144, 97, 75, 130, 85, 90, 25, 125, 140, 59, 66]);
% time elapsed: 8.88 s
----------
%%%mzn-stat: initTime=0.023221734
%%%mzn-stat: objective=905
%%%mzn-stat: nodes=14167
%%%mzn-stat: restarts=0
%%%mzn-stat: peakDepth=1247
%%%mzn-stat: solveTime=0.348536817
%%%mzn-stat: variables=2704
%%%mzn-stat: propagators=1800
%%%mzn-stat: failures=12
%%%mzn-stat: propagations=39072
%%%mzn-stat: nogoods=12
%%%mzn-stat: numAtomicConstraintsPropagated=0
%%%mzn-stat: circuitNumber1PropagationsTotal=1935
%%%mzn-stat: circuitNumber1CircuitConflicts=5
%%%mzn-stat: circuitNumber1AlldiffConflicts=4
%%%mzn-stat: circuitNumber1TotalFixedEdgesAtConflict=1330
%%%mzn-stat: circuitNumber1NumberOfConflicts=9
%%%mzn-stat: circuitNumber1GacPrunings=7741
%%%mzn-stat: circuitNumber1PropagationsThatGacPruned=958
%%%mzn-stat: circuitNumber1TotalPruningHallSetSize=93933
%%%mzn-stat: circuitNumber1NumberOfPruningExplanations=7741
%%%mzn-stat: circuitNumber1MaxPruningHallSetSize=148
%%%mzn-stat: circuitNumber1TotalSccSizeAtPruning=25934
%%%mzn-stat: circuitNumber1NumberOfSccPruningCalls=958
%%%mzn-stat: circuitNumber1TotalVarsInvolvedInPruning=6704
%%%mzn-stat: circuitNumber1MaxValuesPrunedFromSingleVar=10
%%%mzn-stat: circuitNumber1HallCircuitChecks=1947
%%%mzn-stat: circuitNumber1HallCircuitPrunings=0
%%%mzn-stat: circuitNumber1CircuitPreventPrunings=148
%%%mzn-stat: AverageConflictSize=36.5
%%%mzn-stat: NumUnitNogoodsLearned=0
%%%mzn-stat: AverageLearnedNogoodLength=90.83333333333333
%%%mzn-stat: AverageBacktrackAmount=0
%%%mzn-stat: AverageLbd=54.166666666666664
%%%mzn-stat: 2AutonomousSearchNumBackupCalled=13255
%%%mzn-stat: 2AutonomousSearchNumPredicatesRemoved=0
%%%mzn-stat: 2AutonomousSearchNumCalls=13267
%%%mzn-stat: 2AutonomousSearchNumPredicatesAdded=4256
%%%mzn-stat: 2AutonomousSearchAverageSizeOfHeap=1.170272103715987
%%%mzn-stat: 2AutonomousSearchNumAssignedPredicatesEncountered=15526
%%%mzn-stat-end
maxleg = 905;
succ = array1d(1..150,[7, 4, 12, 1, 18, 21, 9, 5, 26, 31, 55, 54, 42, 49, 29, 24, 13, 37, 45, 19, 65, 36, 8, 10, 60, 3, 112, 50, 87, 22, 6, 17, 53, 116, 47, 39, 34, 86, 38, 2, 79, 57, 129, 78, 62, 15, 64, 76, 16, 117, 81, 23, 69, 52, 28, 41, 35, 119, 68, 20, 43, 136, 73, 89, 80, 82, 46, 108, 135, 27, 100, 88, 67, 111, 14, 145, 132, 84, 109, 130, 58, 61, 120, 114, 122, 74, 127, 44, 110, 126, 105, 137, 147, 103, 102, 11, 133, 149, 106, 150, 48, 33, 72, 115, 143, 104, 92, 30, 99, 141, 134, 96, 77, 148, 93, 94, 118, 51, 83, 32, 95, 98, 139, 142, 138, 128, 71, 124, 121, 113, 101, 146, 91, 123, 107, 56, 131, 70, 63, 144, 97, 75, 40, 85, 90, 25, 125, 140, 59, 66]);
% time elapsed: 8.92 s
----------
%%%mzn-stat: initTime=0.023221734
%%%mzn-stat: objective=897
%%%mzn-stat: nodes=15300
%%%mzn-stat: restarts=0
%%%mzn-stat: peakDepth=1247
%%%mzn-stat: solveTime=0.375670355
%%%mzn-stat: variables=2704
%%%mzn-stat: propagators=1800
%%%mzn-stat: failures=12
%%%mzn-stat: propagations=42084
%%%mzn-stat: nogoods=12
%%%mzn-stat: numAtomicConstraintsPropagated=0
%%%mzn-stat: circuitNumber1PropagationsTotal=2079
%%%mzn-stat: circuitNumber1CircuitConflicts=5
%%%mzn-stat: circuitNumber1AlldiffConflicts=4
%%%mzn-stat: circuitNumber1TotalFixedEdgesAtConflict=1330
%%%mzn-stat: circuitNumber1NumberOfConflicts=9
%%%mzn-stat: circuitNumber1GacPrunings=8350
%%%mzn-stat: circuitNumber1PropagationsThatGacPruned=1028
%%%mzn-stat: circuitNumber1TotalPruningHallSetSize=103350
%%%mzn-stat: circuitNumber1NumberOfPruningExplanations=8350
%%%mzn-stat: circuitNumber1MaxPruningHallSetSize=148
%%%mzn-stat: circuitNumber1TotalSccSizeAtPruning=27993
%%%mzn-stat: circuitNumber1NumberOfSccPruningCalls=1028
%%%mzn-stat: circuitNumber1TotalVarsInvolvedInPruning=7214
%%%mzn-stat: circuitNumber1MaxValuesPrunedFromSingleVar=10
%%%mzn-stat: circuitNumber1HallCircuitChecks=2105
%%%mzn-stat: circuitNumber1HallCircuitPrunings=0
%%%mzn-stat: circuitNumber1CircuitPreventPrunings=157
%%%mzn-stat: AverageConflictSize=36.5
%%%mzn-stat: NumUnitNogoodsLearned=0
%%%mzn-stat: AverageLearnedNogoodLength=90.83333333333333
%%%mzn-stat: AverageBacktrackAmount=0
%%%mzn-stat: AverageLbd=54.166666666666664
%%%mzn-stat: 2AutonomousSearchNumBackupCalled=14320
%%%mzn-stat: 2AutonomousSearchNumPredicatesRemoved=0
%%%mzn-stat: 2AutonomousSearchNumCalls=14333
%%%mzn-stat: 2AutonomousSearchNumPredicatesAdded=4256
%%%mzn-stat: 2AutonomousSearchAverageSizeOfHeap=1.269866741087002
%%%mzn-stat: 2AutonomousSearchNumAssignedPredicatesEncountered=18201
%%%mzn-stat-end
maxleg = 897;
succ = array1d(1..150,[7, 4, 12, 1, 18, 21, 9, 5, 26, 31, 55, 54, 49, 81, 29, 24, 13, 37, 45, 19, 65, 36, 8, 10, 60, 3, 112, 50, 87, 22, 6, 17, 53, 116, 47, 39, 34, 86, 38, 2, 79, 57, 129, 78, 62, 15, 64, 76, 16, 117, 146, 23, 69, 52, 28, 41, 35, 119, 68, 20, 43, 136, 73, 89, 80, 82, 46, 42, 135, 27, 100, 88, 44, 111, 14, 145, 132, 84, 109, 130, 58, 61, 120, 114, 141, 74, 127, 108, 103, 126, 105, 137, 147, 93, 102, 11, 133, 149, 106, 150, 48, 33, 72, 115, 143, 104, 92, 30, 99, 67, 134, 96, 77, 148, 124, 94, 118, 51, 83, 32, 95, 98, 139, 142, 138, 63, 71, 122, 121, 113, 101, 128, 91, 123, 107, 56, 131, 70, 110, 144, 97, 75, 40, 85, 90, 25, 125, 140, 59, 66]);
% time elapsed: 8.95 s
----------
%%%mzn-stat: initTime=0.023221734
%%%mzn-stat: objective=895
%%%mzn-stat: nodes=16420
%%%mzn-stat: restarts=0
%%%mzn-stat: peakDepth=1247
%%%mzn-stat: solveTime=0.402327093
%%%mzn-stat: variables=2704
%%%mzn-stat: propagators=1800
%%%mzn-stat: failures=12
%%%mzn-stat: propagations=45099
%%%mzn-stat: nogoods=12
%%%mzn-stat: numAtomicConstraintsPropagated=0
%%%mzn-stat: circuitNumber1PropagationsTotal=2221
%%%mzn-stat: circuitNumber1CircuitConflicts=5
%%%mzn-stat: circuitNumber1AlldiffConflicts=4
%%%mzn-stat: circuitNumber1TotalFixedEdgesAtConflict=1330
%%%mzn-stat: circuitNumber1NumberOfConflicts=9
%%%mzn-stat: circuitNumber1GacPrunings=8964
%%%mzn-stat: circuitNumber1PropagationsThatGacPruned=1098
%%%mzn-stat: circuitNumber1TotalPruningHallSetSize=112568
%%%mzn-stat: circuitNumber1NumberOfPruningExplanations=8964
%%%mzn-stat: circuitNumber1MaxPruningHallSetSize=148
%%%mzn-stat: circuitNumber1TotalSccSizeAtPruning=29981
%%%mzn-stat: circuitNumber1NumberOfSccPruningCalls=1098
%%%mzn-stat: circuitNumber1TotalVarsInvolvedInPruning=7728
%%%mzn-stat: circuitNumber1MaxValuesPrunedFromSingleVar=10
%%%mzn-stat: circuitNumber1HallCircuitChecks=2251
%%%mzn-stat: circuitNumber1HallCircuitPrunings=0
%%%mzn-stat: circuitNumber1CircuitPreventPrunings=165
%%%mzn-stat: AverageConflictSize=36.5
%%%mzn-stat: NumUnitNogoodsLearned=0
%%%mzn-stat: AverageLearnedNogoodLength=90.83333333333333
%%%mzn-stat: AverageBacktrackAmount=0
%%%mzn-stat: AverageLbd=54.166666666666664
%%%mzn-stat: 2AutonomousSearchNumBackupCalled=15372
%%%mzn-stat: 2AutonomousSearchNumPredicatesRemoved=0
%%%mzn-stat: 2AutonomousSearchNumCalls=15386
%%%mzn-stat: 2AutonomousSearchNumPredicatesAdded=4256
%%%mzn-stat: 2AutonomousSearchAverageSizeOfHeap=1.356817886390225
%%%mzn-stat: 2AutonomousSearchNumAssignedPredicatesEncountered=20876
%%%mzn-stat-end
maxleg = 895;
succ = array1d(1..150,[7, 4, 12, 1, 18, 21, 9, 5, 26, 31, 55, 54, 49, 81, 29, 24, 13, 37, 45, 19, 65, 36, 8, 10, 60, 3, 112, 50, 87, 38, 6, 17, 53, 116, 47, 39, 34, 86, 64, 2, 79, 57, 22, 78, 62, 15, 76, 127, 16, 117, 146, 23, 69, 52, 28, 41, 35, 119, 68, 20, 43, 136, 73, 89, 80, 82, 46, 42, 135, 27, 100, 88, 44, 139, 14, 145, 132, 84, 109, 75, 58, 61, 120, 114, 141, 74, 123, 108, 103, 126, 105, 137, 147, 93, 102, 11, 133, 149, 106, 150, 48, 33, 72, 115, 143, 104, 92, 30, 99, 67, 142, 96, 77, 40, 124, 94, 118, 51, 83, 122, 95, 98, 32, 131, 138, 111, 71, 129, 121, 113, 101, 128, 91, 110, 107, 56, 134, 70, 148, 144, 97, 63, 130, 85, 90, 25, 125, 140, 59, 66]);
% time elapsed: 8.98 s
----------
%%%mzn-stat: initTime=0.023221734
%%%mzn-stat: objective=882
%%%mzn-stat: nodes=17511
%%%mzn-stat: restarts=0
%%%mzn-stat: peakDepth=1247
%%%mzn-stat: solveTime=0.432938417
%%%mzn-stat: variables=2704
%%%mzn-stat: propagators=1800
%%%mzn-stat: failures=15
%%%mzn-stat: propagations=48352
%%%mzn-stat: nogoods=15
%%%mzn-stat: numAtomicConstraintsPropagated=0
%%%mzn-stat: circuitNumber1PropagationsTotal=2378
%%%mzn-stat: circuitNumber1CircuitConflicts=8
%%%mzn-stat: circuitNumber1AlldiffConflicts=4
%%%mzn-stat: circuitNumber1TotalFixedEdgesAtConflict=1771
%%%mzn-stat: circuitNumber1NumberOfConflicts=12
%%%mzn-stat: circuitNumber1GacPrunings=9689
%%%mzn-stat: circuitNumber1PropagationsThatGacPruned=1177
%%%mzn-stat: circuitNumber1TotalPruningHallSetSize=122307
%%%mzn-stat: circuitNumber1NumberOfPruningExplanations=9689
%%%mzn-stat: circuitNumber1MaxPruningHallSetSize=148
%%%mzn-stat: circuitNumber1TotalSccSizeAtPruning=32123
%%%mzn-stat: circuitNumber1NumberOfSccPruningCalls=1177
%%%mzn-stat: circuitNumber1TotalVarsInvolvedInPruning=8321
%%%mzn-stat: circuitNumber1MaxValuesPrunedFromSingleVar=10
%%%mzn-stat: circuitNumber1HallCircuitChecks=2404
%%%mzn-stat: circuitNumber1HallCircuitPrunings=0
%%%mzn-stat: circuitNumber1CircuitPreventPrunings=176
%%%mzn-stat: AverageConflictSize=38.2
%%%mzn-stat: NumUnitNogoodsLearned=0
%%%mzn-stat: AverageLearnedNogoodLength=89.2
%%%mzn-stat: AverageBacktrackAmount=0
%%%mzn-stat: AverageLbd=52.13333333333333
%%%mzn-stat: 2AutonomousSearchNumBackupCalled=16392
%%%mzn-stat: 2AutonomousSearchNumPredicatesRemoved=0
%%%mzn-stat: 2AutonomousSearchNumCalls=16407
%%%mzn-stat: 2AutonomousSearchNumPredicatesAdded=4751
%%%mzn-stat: 2AutonomousSearchAverageSizeOfHeap=1.440848418358018
%%%mzn-stat: 2AutonomousSearchNumAssignedPredicatesEncountered=23640
%%%mzn-stat-end
maxleg = 882;
succ = array1d(1..150,[7, 4, 12, 1, 18, 21, 9, 5, 26, 31, 55, 54, 49, 81, 29, 24, 13, 37, 45, 19, 65, 36, 8, 10, 60, 3, 112, 50, 87, 38, 6, 17, 53, 116, 47, 39, 34, 86, 64, 2, 79, 57, 22, 78, 62, 15, 76, 127, 16, 117, 146, 23, 69, 52, 28, 41, 35, 119, 68, 20, 43, 136, 73, 89, 80, 82, 46, 42, 135, 27, 100, 88, 44, 139, 14, 145, 132, 84, 109, 75, 58, 61, 120, 134, 141, 74, 123, 108, 114, 126, 105, 137, 147, 103, 102, 11, 133, 149, 106, 150, 48, 33, 72, 115, 143, 104, 92, 30, 40, 67, 142, 96, 77, 129, 93, 94, 118, 51, 83, 122, 95, 98, 99, 131, 138, 111, 71, 124, 121, 113, 101, 128, 91, 110, 107, 56, 32, 70, 148, 144, 97, 63, 130, 85, 90, 25, 125, 140, 59, 66]);
% time elapsed: 9.01 s
----------
==========
% time elapsed: 9.01 s
%%%mzn-stat: initTime=0.023221734
%%%mzn-stat: objective=882
%%%mzn-stat: nodes=17511
%%%mzn-stat: restarts=0
%%%mzn-stat: peakDepth=1247
%%%mzn-stat: solveTime=0.43396144
%%%mzn-stat: variables=2704
%%%mzn-stat: propagators=1800
%%%mzn-stat: failures=16
%%%mzn-stat: propagations=48627
%%%mzn-stat: nogoods=16
%%%mzn-stat: numAtomicConstraintsPropagated=0
%%%mzn-stat: circuitNumber1PropagationsTotal=2379
%%%mzn-stat: circuitNumber1CircuitConflicts=8
%%%mzn-stat: circuitNumber1AlldiffConflicts=5
%%%mzn-stat: circuitNumber1TotalFixedEdgesAtConflict=1775
%%%mzn-stat: circuitNumber1NumberOfConflicts=13
%%%mzn-stat: circuitNumber1GacPrunings=9689
%%%mzn-stat: circuitNumber1PropagationsThatGacPruned=1177
%%%mzn-stat: circuitNumber1TotalPruningHallSetSize=122307
%%%mzn-stat: circuitNumber1NumberOfPruningExplanations=9689
%%%mzn-stat: circuitNumber1MaxPruningHallSetSize=148
%%%mzn-stat: circuitNumber1TotalSccSizeAtPruning=32123
%%%mzn-stat: circuitNumber1NumberOfSccPruningCalls=1177
%%%mzn-stat: circuitNumber1TotalVarsInvolvedInPruning=8321
%%%mzn-stat: circuitNumber1MaxValuesPrunedFromSingleVar=10
%%%mzn-stat: circuitNumber1HallCircuitChecks=2404
%%%mzn-stat: circuitNumber1HallCircuitPrunings=0
%%%mzn-stat: circuitNumber1CircuitPreventPrunings=176
%%%mzn-stat: AverageConflictSize=37.5
%%%mzn-stat: NumUnitNogoodsLearned=1
%%%mzn-stat: AverageLearnedNogoodLength=83.6875
%%%mzn-stat: AverageBacktrackAmount=0
%%%mzn-stat: AverageLbd=48.9375
%%%mzn-stat: 2AutonomousSearchNumBackupCalled=16392
%%%mzn-stat: 2AutonomousSearchNumPredicatesRemoved=0
%%%mzn-stat: 2AutonomousSearchNumCalls=16407
%%%mzn-stat: 2AutonomousSearchNumPredicatesAdded=5516
%%%mzn-stat: 2AutonomousSearchAverageSizeOfHeap=1.440848418358018
%%%mzn-stat: 2AutonomousSearchNumAssignedPredicatesEncountered=23640
%%%mzn-stat-end
